c Sudoku solution
p cnf 729 0
239 0
257 0
274 0
286 0
314 0
333 0
369 0
377 0
395 0
428 0
449 0
454 0
515 0
522 0
547 0
568 0
624 0
619 0
413 0
662 0
697 0
437 0
835 0
873 0
884 0
594 0
892 0
956 0
989 0
787 0
579 0
536 0
631 0
199 0
293 0
861 0
848 0
967 0
859 0
729 0
923 0
218 0
132 0
382 0
242 0
341 0
265 0
358 0
153 0
125 0
221 0
326 0
117 0
816 0
827 0
752 0
711 0
912 0
551 0
583 0
655 0
643 0
466 0
491 0
676 0
688 0
763 0
146 0
164 0
472 0
485 0
796 0
181 0
178 0
971 0
998 0
775 0
744 0
945 0
738 0
934 0
